c Sudoku solution
p cnf 729 0
113 0
167 0
175 0
191 0
217 0
238 0
266 0
348 0
188 0
393 0
418 0
464 0
477 0
387 0
376 0
489 0
529 0
652 0
663 0
649 0
719 0
726 0
136 0
339 0
159 0
732 0
797 0
886 0
954 0
946 0
979 0
869 0
299 0
915 0
441 0
456 0
857 0
547 0
596 0
616 0
694 0
678 0
122 0
144 0
362 0
512 0
534 0
492 0
842 0
895 0
998 0
982 0
828 0
814 0
961 0
831 0
873 0
311 0
251 0
355 0
243 0
225 0
324 0
621 0
637 0
685 0
423 0
435 0
927 0
933 0
745 0
753 0
768 0
558 0
565 0
272 0
284 0
571 0
583 0
774 0
781 0
